55
1 0 8
2 0 25
2 1 25
3 0 32
3 1 7
3 2 19
4 0 34
4 1 12
4 2 37
4 3 48
5 0 20
5 1 36
5 2 13
5 3 17
5 4 1
6 0 42
6 1 48
6 2 20
6 3 18
6 4 47
6 5 32
7 0 22
7 1 9
7 2 21
7 3 30
7 4 18
7 5 36
7 6 44
8 0 1
8 1 45
8 2 28
8 3 46
8 4 31
8 5 32
8 6 34
8 7 21
9 0 49
9 1 5
9 2 28
9 3 32
9 4 19
9 5 22
9 6 36
9 7 42
9 8 21
10 0 43
10 1 36
10 2 39
10 3 6
10 4 27
10 5 2
10 6 31
10 7 23
10 8 1
10 9 46
11 0 1
11 1 50
11 2 42
11 3 12
11 4 15
11 5 22
11 6 35
11 7 7
11 8 16
11 9 19
11 10 3
12 0 35
12 1 46
12 2 6
12 3 41
12 4 10
12 5 33
12 6 39
12 7 32
12 8 19
12 9 33
12 10 45
12 11 21
13 0 8
13 1 8
13 2 1
13 3 2
13 4 20
13 5 2
13 6 26
13 7 8
13 8 37
13 9 3
13 10 1
13 11 4
13 12 42
14 0 11
14 1 31
14 2 23
14 3 9
14 4 46
14 5 35
14 6 33
14 7 23
14 8 49
14 9 37
14 10 5
14 11 16
14 12 46
14 13 37
15 0 34
15 1 32
15 2 38
15 3 10
15 4 19
15 5 4
15 6 19
15 7 18
15 8 9
15 9 6
15 10 13
15 11 28
15 12 29
15 13 6
15 14 4
16 0 40
16 1 37
16 2 4
16 3 16
16 4 38
16 5 9
16 6 48
16 7 8
16 8 1
16 9 50
16 10 1
16 11 10
16 12 48
16 13 13
16 14 11
16 15 32
17 0 3
17 1 37
17 2 46
17 3 8
17 4 3
17 5 36
17 6 14
17 7 25
17 8 28
17 9 38
17 10 7
17 11 29
17 12 43
17 13 30
17 14 9
17 15 26
17 16 1
18 0 20
18 1 39
18 2 6
18 3 45
18 4 17
18 5 46
18 6 22
18 7 2
18 8 49
18 9 36
18 10 31
18 11 1
18 12 3
18 13 45
18 14 6
18 15 28
18 16 35
18 17 47
19 0 1
19 1 30
19 2 41
19 3 41
19 4 49
19 5 48
19 6 34
19 7 36
19 8 50
19 9 17
19 10 39
19 11 39
19 12 14
19 13 1
19 14 12
19 15 8
19 16 28
19 17 49
19 18 27
20 0 37
20 1 42
20 2 50
20 3 22
20 4 16
20 5 20
20 6 17
20 7 14
20 8 7
20 9 26
20 10 20
20 11 44
20 12 47
20 13 13
20 14 20
20 15 48
20 16 7
20 17 9
20 18 45
20 19 32
21 0 35
21 1 50
21 2 39
21 3 29
21 4 37
21 5 22
21 6 49
21 7 31
21 8 48
21 9 36
21 10 5
21 11 11
21 12 29
21 13 37
21 14 34
21 15 45
21 16 10
21 17 25
21 18 39
21 19 22
21 20 38
22 0 23
22 1 4
22 2 33
22 3 39
22 4 12
22 5 40
22 6 6
22 7 9
22 8 8
22 9 47
22 10 44
22 11 28
22 12 8
22 13 44
22 14 48
22 15 45
22 16 42
22 17 3
22 18 40
22 19 36
22 20 22
22 21 29
23 0 14
23 1 14
23 2 26
23 3 34
23 4 8
23 5 26
23 6 14
23 7 35
23 8 19
23 9 37
23 10 37
23 11 35
23 12 3
23 13 7
23 14 20
23 15 46
23 16 27
23 17 29
23 18 13
23 19 2
23 20 33
23 21 31
23 22 40
24 0 25
24 1 6
24 2 19
24 3 41
24 4 30
24 5 27
24 6 40
24 7 46
24 8 7
24 9 34
24 10 17
24 11 7
24 12 28
24 13 48
24 14 15
24 15 10
24 16 11
24 17 3
24 18 17
24 19 43
24 20 5
24 21 27
24 22 31
24 23 48
25 0 45
25 1 18
25 2 42
25 3 37
25 4 30
25 5 5
25 6 9
25 7 33
25 8 37
25 9 6
25 10 32
25 11 41
25 12 11
25 13 43
25 14 29
25 15 25
25 16 6
25 17 11
25 18 12
25 19 44
25 20 46
25 21 31
25 22 33
25 23 23
25 24 14
26 0 3
26 1 14
26 2 44
26 3 49
26 4 26
26 5 47
26 6 26
26 7 2
26 8 20
26 9 24
26 10 27
26 11 36
26 12 35
26 13 36
26 14 28
26 15 9
26 16 26
26 17 36
26 18 3
26 19 49
26 20 27
26 21 33
26 22 12
26 23 28
26 24 5
26 25 29
27 0 46
27 1 33
27 2 38
27 3 49
27 4 30
27 5 42
27 6 16
27 7 46
27 8 42
27 9 4
27 10 6
27 11 5
27 12 36
27 13 46
27 14 33
27 15 7
27 16 41
27 17 18
27 18 5
27 19 1
27 20 50
27 21 49
27 22 2
27 23 17
27 24 9
27 25 28
27 26 47
28 0 49
28 1 28
28 2 20
28 3 31
28 4 6
28 5 4
28 6 2
28 7 46
28 8 48
28 9 15
28 10 3
28 11 40
28 12 20
28 13 33
28 14 17
28 15 40
28 16 26
28 17 48
28 18 29
28 19 7
28 20 40
28 21 32
28 22 21
28 23 30
28 24 14
28 25 45
28 26 3
28 27 13
29 0 4
29 1 47
29 2 23
29 3 26
29 4 48
29 5 48
29 6 30
29 7 38
29 8 4
29 9 21
29 10 45
29 11 8
29 12 44
29 13 44
29 14 20
29 15 3
29 16 40
29 17 29
29 18 1
29 19 50
29 20 9
29 21 49
29 22 37
29 23 15
29 24 46
29 25 36
29 26 47
29 27 49
29 28 19
30 0 11
30 1 12
30 2 11
30 3 26
30 4 41
30 5 3
30 6 30
30 7 34
30 8 30
30 9 16
30 10 49
30 11 9
30 12 42
30 13 39
30 14 41
30 15 36
30 16 4
30 17 42
30 18 2
30 19 12
30 20 47
30 21 47
30 22 38
30 23 40
30 24 28
30 25 40
30 26 46
30 27 28
30 28 46
30 29 14
31 0 3
31 1 46
31 2 28
31 3 20
31 4 5
31 5 22
31 6 33
31 7 41
31 8 46
31 9 3
31 10 1
31 11 4
31 12 38
31 13 45
31 14 46
31 15 7
31 16 7
31 17 13
31 18 29
31 19 48
31 20 30
31 21 7
31 22 42
31 23 26
31 24 25
31 25 50
31 26 8
31 27 8
31 28 31
31 29 30
31 30 3
32 0 12
32 1 17
32 2 23
32 3 48
32 4 33
32 5 45
32 6 45
32 7 22
32 8 24
32 9 20
32 10 49
32 11 40
32 12 46
32 13 14
32 14 26
32 15 18
32 16 21
32 17 41
32 18 17
32 19 42
32 20 8
32 21 13
32 22 15
32 23 37
32 24 3
32 25 27
32 26 22
32 27 28
32 28 15
32 29 28
32 30 41
32 31 24
33 0 11
33 1 37
33 2 31
33 3 18
33 4 24
33 5 50
33 6 25
33 7 39
33 8 6
33 9 37
33 10 20
33 11 6
33 12 27
33 13 4
33 14 19
33 15 39
33 16 12
33 17 42
33 18 48
33 19 28
33 20 41
33 21 38
33 22 5
33 23 6
33 24 39
33 25 41
33 26 50
33 27 30
33 28 46
33 29 5
33 30 7
33 31 36
33 32 19
34 0 8
34 1 15
34 2 22
34 3 45
34 4 50
34 5 19
34 6 35
34 7 22
34 8 1
34 9 30
34 10 27
34 11 23
34 12 38
34 13 50
34 14 17
34 15 31
34 16 1
34 17 20
34 18 23
34 19 19
34 20 42
34 21 30
34 22 8
34 23 4
34 24 28
34 25 44
34 26 36
34 27 6
34 28 22
34 29 36
34 30 10
34 31 41
34 32 11
34 33 37
35 0 7
35 1 31
35 2 8
35 3 29
35 4 12
35 5 40
35 6 25
35 7 16
35 8 29
35 9 8
35 10 27
35 11 11
35 12 19
35 13 1
35 14 32
35 15 24
35 16 48
35 17 30
35 18 41
35 19 37
35 20 22
35 21 30
35 22 45
35 23 42
35 24 33
35 25 30
35 26 15
35 27 5
35 28 42
35 29 35
35 30 43
35 31 41
35 32 22
35 33 10
35 34 12
36 0 2
36 1 6
36 2 21
36 3 7
36 4 42
36 5 20
36 6 14
36 7 3
36 8 18
36 9 2
36 10 29
36 11 10
36 12 29
36 13 34
36 14 31
36 15 11
36 16 25
36 17 26
36 18 22
36 19 28
36 20 14
36 21 8
36 22 37
36 23 29
36 24 22
36 25 37
36 26 21
36 27 49
36 28 1
36 29 44
36 30 8
36 31 50
36 32 39
36 33 19
36 34 29
36 35 15
37 0 11
37 1 24
37 2 37
37 3 43
37 4 20
37 5 2
37 6 12
37 7 50
37 8 46
37 9 14
37 10 9
37 11 27
37 12 3
37 13 29
37 14 16
37 15 24
37 16 22
37 17 29
37 18 38
37 19 47
37 20 28
37 21 40
37 22 37
37 23 11
37 24 40
37 25 17
37 26 13
37 27 1
37 28 7
37 29 4
37 30 36
37 31 23
37 32 21
37 33 10
37 34 45
37 35 8
37 36 6
38 0 10
38 1 46
38 2 41
38 3 32
38 4 1
38 5 37
38 6 39
38 7 44
38 8 9
38 9 34
38 10 27
38 11 27
38 12 27
38 13 48
38 14 28
38 15 11
38 16 24
38 17 1
38 18 22
38 19 29
38 20 29
38 21 24
38 22 10
38 23 40
38 24 46
38 25 29
38 26 38
38 27 24
38 28 29
38 29 37
38 30 27
38 31 11
38 32 8
38 33 33
38 34 30
38 35 1
38 36 20
38 37 35
39 0 9
39 1 49
39 2 42
39 3 46
39 4 5
39 5 48
39 6 29
39 7 39
39 8 38
39 9 9
39 10 15
39 11 14
39 12 26
39 13 47
39 14 2
39 15 17
39 16 26
39 17 6
39 18 46
39 19 23
39 20 38
39 21 31
39 22 44
39 23 1
39 24 22
39 25 29
39 26 3
39 27 39
39 28 2
39 29 26
39 30 42
39 31 23
39 32 43
39 33 50
39 34 36
39 35 24
39 36 41
39 37 16
39 38 44
40 0 2
40 1 32
40 2 19
40 3 30
40 4 20
40 5 46
40 6 43
40 7 18
40 8 48
40 9 32
40 10 4
40 11 50
40 12 13
40 13 2
40 14 24
40 15 16
40 16 17
40 17 50
40 18 14
40 19 6
40 20 50
40 21 14
40 22 6
40 23 20
40 24 31
40 25 24
40 26 20
40 27 13
40 28 49
40 29 6
40 30 39
40 31 42
40 32 50
40 33 35
40 34 8
40 35 11
40 36 15
40 37 20
40 38 39
40 39 5
41 0 12
41 1 31
41 2 32
41 3 39
41 4 34
41 5 44
41 6 9
41 7 33
41 8 22
41 9 29
41 10 44
41 11 20
41 12 34
41 13 31
41 14 13
41 15 17
41 16 9
41 17 42
41 18 29
41 19 41
41 20 26
41 21 50
41 22 2
41 23 37
41 24 31
41 25 30
41 26 15
41 27 2
41 28 2
41 29 33
41 30 38
41 31 20
41 32 2
41 33 23
41 34 36
41 35 5
41 36 19
41 37 44
41 38 29
41 39 45
41 40 14
42 0 25
42 1 25
42 2 17
42 3 46
42 4 3
42 5 10
42 6 41
42 7 32
42 8 32
42 9 5
42 10 22
42 11 32
42 12 32
42 13 30
42 14 23
42 15 32
42 16 37
42 17 14
42 18 38
42 19 50
42 20 48
42 21 35
42 22 29
42 23 14
42 24 46
42 25 25
42 26 38
42 27 8
42 28 33
42 29 18
42 30 46
42 31 9
42 32 32
42 33 49
42 34 26
42 35 34
42 36 2
42 37 1
42 38 26
42 39 9
42 40 2
42 41 38
43 0 16
43 1 32
43 2 1
43 3 42
43 4 4
43 5 39
43 6 45
43 7 19
43 8 24
43 9 4
43 10 41
43 11 23
43 12 46
43 13 9
43 14 50
43 15 24
43 16 6
43 17 4
43 18 25
43 19 8
43 20 8
43 21 1
43 22 7
43 23 4
43 24 12
43 25 3
43 26 5
43 27 43
43 28 20
43 29 39
43 30 18
43 31 42
43 32 32
43 33 32
43 34 30
43 35 14
43 36 26
43 37 42
43 38 49
43 39 44
43 40 19
43 41 39
43 42 34
44 0 50
44 1 8
44 2 15
44 3 38
44 4 36
44 5 41
44 6 30
44 7 49
44 8 43
44 9 13
44 10 18
44 11 2
44 12 31
44 13 10
44 14 15
44 15 22
44 16 4
44 17 12
44 18 21
44 19 38
44 20 7
44 21 8
44 22 38
44 23 1
44 24 31
44 25 14
44 26 48
44 27 28
44 28 7
44 29 19
44 30 22
44 31 25
44 32 29
44 33 13
44 34 42
44 35 43
44 36 43
44 37 17
44 38 41
44 39 35
44 40 30
44 41 33
44 42 32
44 43 46
45 0 29
45 1 10
45 2 2
45 3 37
45 4 16
45 5 16
45 6 14
45 7 42
45 8 13
45 9 40
45 10 15
45 11 36
45 12 49
45 13 2
45 14 32
45 15 32
45 16 42
45 17 40
45 18 15
45 19 25
45 20 42
45 21 3
45 22 34
45 23 13
45 24 23
45 25 39
45 26 25
45 27 42
45 28 49
45 29 21
45 30 14
45 31 27
45 32 18
45 33 38
45 34 23
45 35 31
45 36 41
45 37 6
45 38 37
45 39 16
45 40 36
45 41 22
45 42 43
45 43 27
45 44 1
46 0 13
46 1 1
46 2 11
46 3 5
46 4 48
46 5 37
46 6 35
46 7 3
46 8 42
46 9 28
46 10 43
46 11 1
46 12 21
46 13 19
46 14 43
46 15 12
46 16 34
46 17 44
46 18 31
46 19 42
46 20 36
46 21 21
46 22 25
46 23 22
46 24 50
46 25 35
46 26 36
46 27 1
46 28 22
46 29 27
46 30 25
46 31 6
46 32 49
46 33 48
46 34 2
46 35 32
46 36 48
46 37 19
46 38 36
46 39 12
46 40 5
46 41 15
46 42 10
46 43 7
46 44 20
46 45 10
47 0 9
47 1 21
47 2 22
47 3 18
47 4 15
47 5 30
47 6 50
47 7 31
47 8 3
47 9 41
47 10 35
47 11 33
47 12 49
47 13 47
47 14 21
47 15 2
47 16 17
47 17 23
47 18 16
47 19 12
47 20 7
47 21 45
47 22 11
47 23 15
47 24 17
47 25 14
47 26 5
47 27 44
47 28 3
47 29 39
47 30 20
47 31 47
47 32 42
47 33 23
47 34 8
47 35 7
47 36 47
47 37 1
47 38 10
47 39 38
47 40 3
47 41 32
47 42 10
47 43 44
47 44 7
47 45 31
47 46 38
48 0 44
48 1 12
48 2 15
48 3 13
48 4 32
48 5 31
48 6 13
48 7 7
48 8 5
48 9 7
48 10 6
48 11 33
48 12 30
48 13 6
48 14 14
48 15 15
48 16 46
48 17 4
48 18 22
48 19 23
48 20 11
48 21 38
48 22 24
48 23 14
48 24 34
48 25 45
48 26 34
48 27 13
48 28 27
48 29 49
48 30 36
48 31 22
48 32 24
48 33 24
48 34 3
48 35 11
48 36 13
48 37 9
48 38 8
48 39 43
48 40 8
48 41 13
48 42 46
48 43 32
48 44 17
48 45 35
48 46 33
48 47 37
49 0 49
49 1 4
49 2 31
49 3 38
49 4 23
49 5 22
49 6 27
49 7 8
49 8 28
49 9 14
49 10 2
49 11 4
49 12 45
49 13 36
49 14 28
49 15 28
49 16 21
49 17 3
49 18 23
49 19 37
49 20 22
49 21 45
49 22 14
49 23 41
49 24 36
49 25 46
49 26 11
49 27 36
49 28 28
49 29 16
49 30 32
49 31 48
49 32 32
49 33 29
49 34 37
49 35 45
49 36 30
49 37 40
49 38 2
49 39 22
49 40 50
49 41 47
49 42 10
49 43 48
49 44 25
49 45 29
49 46 17
49 47 2
49 48 24
50 0 18
50 1 35
50 2 9
50 3 8
50 4 40
50 5 32
50 6 21
50 7 5
50 8 10
50 9 4
50 10 2
50 11 28
50 12 18
50 13 45
50 14 14
50 15 15
50 16 28
50 17 3
50 18 43
50 19 27
50 20 25
50 21 12
50 22 2
50 23 14
50 24 9
50 25 16
50 26 50
50 27 9
50 28 28
50 29 12
50 30 15
50 31 43
50 32 42
50 33 34
50 34 13
50 35 50
50 36 26
50 37 41
50 38 37
50 39 38
50 40 32
50 41 11
50 42 41
50 43 31
50 44 39
50 45 7
50 46 41
50 47 14
50 48 41
50 49 29
51 0 18
51 1 21
51 2 30
51 3 2
51 4 41
51 5 20
51 6 33
51 7 14
51 8 37
51 9 22
51 10 50
51 11 29
51 12 43
51 13 18
51 14 32
51 15 2
51 16 43
51 17 21
51 18 2
51 19 6
51 20 8
51 21 29
51 22 43
51 23 10
51 24 1
51 25 8
51 26 36
51 27 18
51 28 10
51 29 5
51 30 39
51 31 8
51 32 26
51 33 38
51 34 18
51 35 7
51 36 17
51 37 18
51 38 47
51 39 42
51 40 38
51 41 19
51 42 13
51 43 1
51 44 4
51 45 24
51 46 14
51 47 20
51 48 29
51 49 43
51 50 12
52 0 30
52 1 49
52 2 46
52 3 16
52 4 30
52 5 3
52 6 42
52 7 12
52 8 45
52 9 7
52 10 27
52 11 49
52 12 34
52 13 29
52 14 35
52 15 36
52 16 6
52 17 17
52 18 10
52 19 11
52 20 45
52 21 21
52 22 1
52 23 21
52 24 31
52 25 35
52 26 31
52 27 13
52 28 23
52 29 21
52 30 46
52 31 31
52 32 21
52 33 6
52 34 40
52 35 42
52 36 6
52 37 19
52 38 40
52 39 41
52 40 32
52 41 7
52 42 44
52 43 42
52 44 12
52 45 25
52 46 5
52 47 7
52 48 33
52 49 28
52 50 10
52 51 46
53 0 27
53 1 21
53 2 21
53 3 44
53 4 8
53 5 31
53 6 8
53 7 42
53 8 11
53 9 21
53 10 24
53 11 45
53 12 43
53 13 39
53 14 6
53 15 20
53 16 38
53 17 7
53 18 37
53 19 8
53 20 10
53 21 5
53 22 49
53 23 13
53 24 13
53 25 30
53 26 35
53 27 4
53 28 34
53 29 17
53 30 6
53 31 22
53 32 11
53 33 29
53 34 37
53 35 2
53 36 5
53 37 24
53 38 38
53 39 25
53 40 3
53 41 19
53 42 46
53 43 39
53 44 24
53 45 4
53 46 34
53 47 33
53 48 1
53 49 47
53 50 8
53 51 41
53 52 1
54 0 3
54 1 24
54 2 15
54 3 33
54 4 13
54 5 13
54 6 39
54 7 25
54 8 11
54 9 10
54 10 33
54 11 49
54 12 19
54 13 26
54 14 48
54 15 45
54 16 16
54 17 19
54 18 40
54 19 50
54 20 22
54 21 11
54 22 23
54 23 19
54 24 35
54 25 25
54 26 36
54 27 49
54 28 16
54 29 20
54 30 38
54 31 27
54 32 39
54 33 49
54 34 45
54 35 1
54 36 28
54 37 37
54 38 46
54 39 49
54 40 36
54 41 21
54 42 39
54 43 26
54 44 35
54 45 40
54 46 1
54 47 3
54 48 13
54 49 23
54 50 45
54 51 38
54 52 39
54 53 7
